(set-info :smt-lib-version 2.6)
(set-logic QF_NRA)
(set-info :source |Benchmarks generated from hycomp (https://es-static.fbk.eu/tools/hycomp/). BMC instances of non-linear hybrid automata taken from: Alessandro Cimatti, Sergio Mover, Stefano Tonetta, A quantifier-free SMT encoding of non-linear hybrid automata, FMCAD 2012 and Alessandro Cimatti, Sergio Mover, Stefano Tonetta, Quantier-free encoding of invariants for Hybrid Systems, Formal Methods in System Design. This instance solves a BMC problem of depth 4 and uses the encoding obtained with quantifier elimination using qepcad encoding. Contacts: Sergio Mover (mover@fbk.eu), Stefano Tonetta (tonettas@fbk.eu), Alessandro Cimatti (cimatti@fbk.eu).|)
(set-info :category "industrial")
(set-info :status unsat)
;; MathSAT API call trace
;; generated on Mon Mar 19 10:45:20 2012
(declare-fun b.speed_y__AT4 () Real)
(declare-fun b.event_is_timed__AT0 () Bool)
(declare-fun b.time__AT0 () Real)
(declare-fun b.EVENT.1__AT1 () Bool)
(declare-fun b.counter.1__AT3 () Bool)
(declare-fun b.counter.1__AT2 () Bool)
(declare-fun b.event_is_timed__AT2 () Bool)
(declare-fun b.x__AT3 () Real)
(declare-fun b.delta__AT0 () Real)
(declare-fun b.counter.2__AT3 () Bool)
(declare-fun b.EVENT.1__AT3 () Bool)
(declare-fun b.counter.3__AT3 () Bool)
(declare-fun b.bool_atom__AT3 () Bool)
(declare-fun b.counter.2__AT2 () Bool)
(declare-fun b.time__AT2 () Real)
(declare-fun b.y__AT0 () Real)
(declare-fun b.counter.3__AT2 () Bool)
(declare-fun b.speed_y__AT3 () Real)
(declare-fun b.speed_y__AT2 () Real)
(declare-fun b.delta__AT2 () Real)
(declare-fun b.counter.0__AT0 () Bool)
(declare-fun b.bool_atom__AT2 () Bool)
(declare-fun b.EVENT.1__AT0 () Bool)
(declare-fun b.EVENT.0__AT0 () Bool)
(declare-fun b.EVENT.0__AT2 () Bool)
(declare-fun b.counter.3__AT0 () Bool)
(declare-fun b.counter.1__AT0 () Bool)
(declare-fun b.bool_atom__AT1 () Bool)
(declare-fun b.EVENT.1__AT2 () Bool)
(declare-fun b.event_is_timed__AT4 () Bool)
(declare-fun b.g__AT0 () Real)
(declare-fun b.event_is_timed__AT1 () Bool)
(declare-fun b.speed_y__AT0 () Real)
(declare-fun b.y__AT1 () Real)
(declare-fun b.counter.2__AT0 () Bool)
(declare-fun b.counter.0__AT1 () Bool)
(declare-fun b.y__AT4 () Real)
(declare-fun b.time__AT4 () Real)
(declare-fun b.counter.1__AT1 () Bool)
(declare-fun b.counter.0__AT4 () Bool)
(declare-fun b.delta__AT4 () Real)
(declare-fun b.counter.2__AT1 () Bool)
(declare-fun b.counter.1__AT4 () Bool)
(declare-fun b.x__AT4 () Real)
(declare-fun b.time__AT3 () Real)
(declare-fun b.event_is_timed__AT3 () Bool)
(declare-fun b.EVENT.0__AT4 () Bool)
(declare-fun b.counter.3__AT1 () Bool)
(declare-fun b.x__AT1 () Real)
(declare-fun b.bool_atom__AT0 () Bool)
(declare-fun b.counter.2__AT4 () Bool)
(declare-fun b.delta__AT3 () Real)
(declare-fun b.x__AT0 () Real)
(declare-fun b.EVENT.1__AT4 () Bool)
(declare-fun b.counter.3__AT4 () Bool)
(declare-fun b.EVENT.0__AT3 () Bool)
(declare-fun b.bool_atom__AT4 () Bool)
(declare-fun b.delta__AT1 () Real)
(declare-fun b.y__AT3 () Real)
(declare-fun b.speed_y__AT1 () Real)
(declare-fun b.x__AT2 () Real)
(declare-fun b.y__AT2 () Real)
(declare-fun b.time__AT1 () Real)
(declare-fun b.EVENT.0__AT1 () Bool)
(declare-fun b.counter.0__AT3 () Bool)
(declare-fun b.counter.0__AT2 () Bool)
(assert (let ((.def_847 (* 5.0 b.delta__AT4)))
(let ((.def_848 (* b.delta__AT4 .def_847)))
(let ((.def_849 (* (- 1.0) .def_848)))
(let ((.def_845 (* b.speed_y__AT4 b.delta__AT4)))
(let ((.def_852 (+ .def_845 .def_849)))
(let ((.def_842 (* b.x__AT4 b.x__AT4)))
(let ((.def_853 (+ .def_842 .def_852)))
(let ((.def_854 (+ b.y__AT4 .def_853)))
(let ((.def_855 (<= 0.0 .def_854)))
(let ((.def_843 (+ b.y__AT4 .def_842)))
(let ((.def_844 (<= 0.0 .def_843)))
(let ((.def_856 (and .def_844 .def_855)))
(let ((.def_840 (<= 0.0 b.delta__AT4)))
(let ((.def_841 (not .def_840)))
(let ((.def_857 (or .def_841 .def_856)))
(let ((.def_815 (not b.EVENT.0__AT4)))
(let ((.def_813 (not b.EVENT.1__AT4)))
(let ((.def_837 (and .def_813 .def_815)))
(let ((.def_838 (not .def_837)))
(let ((.def_858 (or .def_838 .def_857)))
(let ((.def_551 (not b.counter.0__AT3)))
(let ((.def_830 (or b.counter.1__AT3 .def_551)))
(let ((.def_831 (or b.counter.2__AT3 .def_830)))
(let ((.def_541 (not b.counter.1__AT3)))
(let ((.def_825 (and .def_541 .def_551)))
(let ((.def_546 (not b.counter.2__AT3)))
(let ((.def_829 (or .def_546 .def_825)))
(let ((.def_832 (and .def_829 .def_831)))
(let ((.def_833 (or b.counter.3__AT3 .def_832)))
(let ((.def_826 (or b.counter.2__AT3 .def_825)))
(let ((.def_824 (or .def_541 .def_546)))
(let ((.def_827 (and .def_824 .def_826)))
(let ((.def_560 (not b.counter.3__AT3)))
(let ((.def_828 (or .def_560 .def_827)))
(let ((.def_834 (and .def_828 .def_833)))
(let ((.def_818 (* (- 1.0) b.x__AT4)))
(let ((.def_819 (* b.x__AT4 .def_818)))
(let ((.def_820 (<= .def_819 b.y__AT4)))
(let ((.def_68 (<= b.g__AT0 10.0 )))
(let ((.def_67 (<= 8.0 b.g__AT0)))
(let ((.def_69 (and .def_67 .def_68)))
(let ((.def_821 (and .def_69 .def_820)))
(let ((.def_816 (or .def_813 .def_815)))
(let ((.def_9 (not b.counter.0__AT4)))
(let ((.def_6 (not b.counter.1__AT4)))
(let ((.def_806 (or .def_6 .def_9)))
(let ((.def_810 (or b.counter.3__AT4 .def_806)))
(let ((.def_807 (or b.counter.2__AT4 .def_806)))
(let ((.def_4 (not b.counter.2__AT4)))
(let ((.def_805 (or .def_4 .def_9)))
(let ((.def_808 (and .def_805 .def_807)))
(let ((.def_14 (not b.counter.3__AT4)))
(let ((.def_809 (or .def_14 .def_808)))
(let ((.def_811 (and .def_809 .def_810)))
(let ((.def_817 (and .def_811 .def_816)))
(let ((.def_822 (and .def_817 .def_821)))
(let ((.def_657 (<= 0.0 b.delta__AT3)))
(let ((.def_632 (not b.EVENT.0__AT3)))
(let ((.def_630 (not b.EVENT.1__AT3)))
(let ((.def_654 (and .def_630 .def_632)))
(let ((.def_655 (not .def_654)))
(let ((.def_801 (or .def_655 .def_657)))
(let ((.def_802 (or b.EVENT.1__AT3 .def_801)))
(let ((.def_712 (= b.bool_atom__AT3 b.bool_atom__AT4)))
(let ((.def_708 (= b.counter.0__AT4 b.counter.0__AT3)))
(let ((.def_706 (= b.counter.1__AT4 b.counter.1__AT3)))
(let ((.def_704 (= b.counter.2__AT4 b.counter.2__AT3)))
(let ((.def_703 (= b.counter.3__AT4 b.counter.3__AT3)))
(let ((.def_705 (and .def_703 .def_704)))
(let ((.def_707 (and .def_705 .def_706)))
(let ((.def_709 (and .def_707 .def_708)))
(let ((.def_797 (and .def_709 .def_712)))
(let ((.def_798 (or .def_655 .def_797)))
(let ((.def_799 (or b.EVENT.1__AT3 .def_798)))
(let ((.def_207 (* (- 1.0) b.g__AT0)))
(let ((.def_786 (* .def_207 b.delta__AT3)))
(let ((.def_787 (* (- 1.0) b.speed_y__AT4)))
(let ((.def_790 (+ .def_787 .def_786)))
(let ((.def_791 (+ b.speed_y__AT3 .def_790)))
(let ((.def_792 (= .def_791 0.0 )))
(let ((.def_775 (* b.delta__AT3 b.delta__AT3)))
(let ((.def_210 (* (/ 1 2) .def_207)))
(let ((.def_776 (* .def_210 .def_775)))
(let ((.def_777 (* (- 1.0) b.y__AT4)))
(let ((.def_781 (+ .def_777 .def_776)))
(let ((.def_662 (* b.speed_y__AT3 b.delta__AT3)))
(let ((.def_782 (+ .def_662 .def_781)))
(let ((.def_783 (+ b.y__AT3 .def_782)))
(let ((.def_784 (= .def_783 0.0 )))
(let ((.def_695 (= b.x__AT3 b.x__AT4)))
(let ((.def_785 (and .def_695 .def_784)))
(let ((.def_793 (and .def_785 .def_792)))
(let ((.def_794 (or .def_655 .def_793)))
(let ((.def_698 (= b.y__AT3 b.y__AT4)))
(let ((.def_770 (and .def_695 .def_698)))
(let ((.def_701 (= b.speed_y__AT3 b.speed_y__AT4)))
(let ((.def_771 (and .def_701 .def_770)))
(let ((.def_767 (= b.delta__AT3 0.0 )))
(let ((.def_768 (and .def_654 .def_767)))
(let ((.def_769 (not .def_768)))
(let ((.def_772 (or .def_769 .def_771)))
(let ((.def_773 (or b.EVENT.1__AT3 .def_772)))
(let ((.def_760 (and .def_701 .def_709)))
(let ((.def_761 (or b.bool_atom__AT3 .def_760)))
(let ((.def_736 (or .def_9 b.counter.0__AT3)))
(let ((.def_735 (or b.counter.0__AT4 .def_551)))
(let ((.def_737 (and .def_735 .def_736)))
(let ((.def_738 (and .def_6 .def_737)))
(let ((.def_739 (or b.counter.1__AT3 .def_738)))
(let ((.def_734 (or b.counter.1__AT4 .def_541)))
(let ((.def_740 (and .def_734 .def_739)))
(let ((.def_751 (and .def_4 .def_740)))
(let ((.def_752 (or b.counter.2__AT3 .def_751)))
(let ((.def_746 (and .def_6 .def_551)))
(let ((.def_747 (or b.counter.1__AT3 .def_746)))
(let ((.def_748 (and .def_734 .def_747)))
(let ((.def_749 (and b.counter.2__AT4 .def_748)))
(let ((.def_750 (or .def_546 .def_749)))
(let ((.def_753 (and .def_750 .def_752)))
(let ((.def_754 (and b.counter.3__AT4 .def_753)))
(let ((.def_755 (or b.counter.3__AT3 .def_754)))
(let ((.def_741 (and b.counter.2__AT4 .def_740)))
(let ((.def_742 (or b.counter.2__AT3 .def_741)))
(let ((.def_730 (or b.counter.1__AT4 b.counter.1__AT3)))
(let ((.def_728 (and .def_6 b.counter.0__AT4)))
(let ((.def_729 (or .def_541 .def_728)))
(let ((.def_731 (and .def_729 .def_730)))
(let ((.def_732 (and .def_4 .def_731)))
(let ((.def_733 (or .def_546 .def_732)))
(let ((.def_743 (and .def_733 .def_742)))
(let ((.def_744 (and .def_14 .def_743)))
(let ((.def_745 (or .def_560 .def_744)))
(let ((.def_756 (and .def_745 .def_755)))
(let ((.def_725 (* b.speed_y__AT4 b.speed_y__AT4)))
(let ((.def_538 (* b.speed_y__AT3 b.speed_y__AT3)))
(let ((.def_726 (= .def_538 .def_725)))
(let ((.def_723 (+ b.speed_y__AT3 b.speed_y__AT4)))
(let ((.def_724 (= .def_723 0.0 )))
(let ((.def_727 (and .def_724 .def_726)))
(let ((.def_757 (and .def_727 .def_756)))
(let ((.def_722 (not b.bool_atom__AT3)))
(let ((.def_758 (or .def_722 .def_757)))
(let ((.def_718 (<= 0.0 b.speed_y__AT3)))
(let ((.def_719 (not .def_718)))
(let ((.def_635 (* (- 1.0) b.x__AT3)))
(let ((.def_636 (* b.x__AT3 .def_635)))
(let ((.def_717 (= b.y__AT3 .def_636)))
(let ((.def_720 (and .def_717 .def_719)))
(let ((.def_721 (= b.bool_atom__AT3 .def_720)))
(let ((.def_759 (and .def_721 .def_758)))
(let ((.def_762 (and .def_759 .def_761)))
(let ((.def_763 (and .def_695 .def_762)))
(let ((.def_764 (and .def_698 .def_763)))
(let ((.def_765 (or .def_654 .def_764)))
(let ((.def_766 (or b.EVENT.1__AT3 .def_765)))
(let ((.def_774 (and .def_766 .def_773)))
(let ((.def_795 (and .def_774 .def_794)))
(let ((.def_682 (= b.time__AT3 b.time__AT4)))
(let ((.def_696 (and .def_682 .def_695)))
(let ((.def_699 (and .def_696 .def_698)))
(let ((.def_702 (and .def_699 .def_701)))
(let ((.def_710 (and .def_702 .def_709)))
(let ((.def_713 (and .def_710 .def_712)))
(let ((.def_714 (or .def_630 .def_713)))
(let ((.def_685 (* (- 1.0) b.time__AT4)))
(let ((.def_688 (+ b.delta__AT3 .def_685)))
(let ((.def_689 (+ b.time__AT3 .def_688)))
(let ((.def_690 (= .def_689 0.0 )))
(let ((.def_691 (or .def_655 .def_690)))
(let ((.def_692 (or b.EVENT.1__AT3 .def_691)))
(let ((.def_683 (or .def_654 .def_682)))
(let ((.def_684 (or b.EVENT.1__AT3 .def_683)))
(let ((.def_693 (and .def_684 .def_692)))
(let ((.def_715 (and .def_693 .def_714)))
(let ((.def_679 (= .def_655 b.event_is_timed__AT4)))
(let ((.def_677 (= b.event_is_timed__AT3 .def_654)))
(let ((.def_680 (and .def_677 .def_679)))
(let ((.def_716 (and .def_680 .def_715)))
(let ((.def_796 (and .def_716 .def_795)))
(let ((.def_800 (and .def_796 .def_799)))
(let ((.def_803 (and .def_800 .def_802)))
(let ((.def_804 (and .def_630 .def_803)))
(let ((.def_823 (and .def_804 .def_822)))
(let ((.def_835 (and .def_823 .def_834)))
(let ((.def_664 (* 5.0 b.delta__AT3)))
(let ((.def_665 (* b.delta__AT3 .def_664)))
(let ((.def_666 (* (- 1.0) .def_665)))
(let ((.def_669 (+ .def_662 .def_666)))
(let ((.def_659 (* b.x__AT3 b.x__AT3)))
(let ((.def_670 (+ .def_659 .def_669)))
(let ((.def_671 (+ b.y__AT3 .def_670)))
(let ((.def_672 (<= 0.0 .def_671)))
(let ((.def_660 (+ b.y__AT3 .def_659)))
(let ((.def_661 (<= 0.0 .def_660)))
(let ((.def_673 (and .def_661 .def_672)))
(let ((.def_658 (not .def_657)))
(let ((.def_674 (or .def_658 .def_673)))
(let ((.def_675 (or .def_655 .def_674)))
(let ((.def_360 (not b.counter.0__AT2)))
(let ((.def_647 (or b.counter.1__AT2 .def_360)))
(let ((.def_648 (or b.counter.2__AT2 .def_647)))
(let ((.def_350 (not b.counter.1__AT2)))
(let ((.def_642 (and .def_350 .def_360)))
(let ((.def_355 (not b.counter.2__AT2)))
(let ((.def_646 (or .def_355 .def_642)))
(let ((.def_649 (and .def_646 .def_648)))
(let ((.def_650 (or b.counter.3__AT2 .def_649)))
(let ((.def_643 (or b.counter.2__AT2 .def_642)))
(let ((.def_641 (or .def_350 .def_355)))
(let ((.def_644 (and .def_641 .def_643)))
(let ((.def_369 (not b.counter.3__AT2)))
(let ((.def_645 (or .def_369 .def_644)))
(let ((.def_651 (and .def_645 .def_650)))
(let ((.def_637 (<= .def_636 b.y__AT3)))
(let ((.def_638 (and .def_69 .def_637)))
(let ((.def_633 (or .def_630 .def_632)))
(let ((.def_623 (or .def_541 .def_551)))
(let ((.def_627 (or b.counter.3__AT3 .def_623)))
(let ((.def_624 (or b.counter.2__AT3 .def_623)))
(let ((.def_622 (or .def_546 .def_551)))
(let ((.def_625 (and .def_622 .def_624)))
(let ((.def_626 (or .def_560 .def_625)))
(let ((.def_628 (and .def_626 .def_627)))
(let ((.def_634 (and .def_628 .def_633)))
(let ((.def_639 (and .def_634 .def_638)))
(let ((.def_466 (<= 0.0 b.delta__AT2)))
(let ((.def_441 (not b.EVENT.0__AT2)))
(let ((.def_439 (not b.EVENT.1__AT2)))
(let ((.def_463 (and .def_439 .def_441)))
(let ((.def_464 (not .def_463)))
(let ((.def_618 (or .def_464 .def_466)))
(let ((.def_619 (or b.EVENT.1__AT2 .def_618)))
(let ((.def_525 (= b.bool_atom__AT2 b.bool_atom__AT3)))
(let ((.def_521 (= b.counter.0__AT2 b.counter.0__AT3)))
(let ((.def_518 (= b.counter.1__AT2 b.counter.1__AT3)))
(let ((.def_515 (= b.counter.2__AT2 b.counter.2__AT3)))
(let ((.def_513 (= b.counter.3__AT2 b.counter.3__AT3)))
(let ((.def_516 (and .def_513 .def_515)))
(let ((.def_519 (and .def_516 .def_518)))
(let ((.def_522 (and .def_519 .def_521)))
(let ((.def_614 (and .def_522 .def_525)))
(let ((.def_615 (or .def_464 .def_614)))
(let ((.def_616 (or b.EVENT.1__AT2 .def_615)))
(let ((.def_603 (* .def_207 b.delta__AT2)))
(let ((.def_604 (* (- 1.0) b.speed_y__AT3)))
(let ((.def_607 (+ .def_604 .def_603)))
(let ((.def_608 (+ b.speed_y__AT2 .def_607)))
(let ((.def_609 (= .def_608 0.0 )))
(let ((.def_592 (* b.delta__AT2 b.delta__AT2)))
(let ((.def_593 (* .def_210 .def_592)))
(let ((.def_594 (* (- 1.0) b.y__AT3)))
(let ((.def_598 (+ .def_594 .def_593)))
(let ((.def_471 (* b.speed_y__AT2 b.delta__AT2)))
(let ((.def_599 (+ .def_471 .def_598)))
(let ((.def_600 (+ b.y__AT2 .def_599)))
(let ((.def_601 (= .def_600 0.0 )))
(let ((.def_504 (= b.x__AT2 b.x__AT3)))
(let ((.def_602 (and .def_504 .def_601)))
(let ((.def_610 (and .def_602 .def_609)))
(let ((.def_611 (or .def_464 .def_610)))
(let ((.def_507 (= b.y__AT2 b.y__AT3)))
(let ((.def_587 (and .def_504 .def_507)))
(let ((.def_510 (= b.speed_y__AT2 b.speed_y__AT3)))
(let ((.def_588 (and .def_510 .def_587)))
(let ((.def_584 (= b.delta__AT2 0.0 )))
(let ((.def_585 (and .def_463 .def_584)))
(let ((.def_586 (not .def_585)))
(let ((.def_589 (or .def_586 .def_588)))
(let ((.def_590 (or b.EVENT.1__AT2 .def_589)))
(let ((.def_577 (and .def_510 .def_522)))
(let ((.def_578 (or b.bool_atom__AT2 .def_577)))
(let ((.def_552 (or b.counter.0__AT2 .def_551)))
(let ((.def_550 (or .def_360 b.counter.0__AT3)))
(let ((.def_553 (and .def_550 .def_552)))
(let ((.def_554 (and .def_541 .def_553)))
(let ((.def_555 (or b.counter.1__AT2 .def_554)))
(let ((.def_549 (or .def_350 b.counter.1__AT3)))
(let ((.def_556 (and .def_549 .def_555)))
(let ((.def_568 (and .def_546 .def_556)))
(let ((.def_569 (or b.counter.2__AT2 .def_568)))
(let ((.def_563 (and .def_360 .def_541)))
(let ((.def_564 (or b.counter.1__AT2 .def_563)))
(let ((.def_565 (and .def_549 .def_564)))
(let ((.def_566 (and b.counter.2__AT3 .def_565)))
(let ((.def_567 (or .def_355 .def_566)))
(let ((.def_570 (and .def_567 .def_569)))
(let ((.def_571 (and b.counter.3__AT3 .def_570)))
(let ((.def_572 (or b.counter.3__AT2 .def_571)))
(let ((.def_557 (and b.counter.2__AT3 .def_556)))
(let ((.def_558 (or b.counter.2__AT2 .def_557)))
(let ((.def_544 (or b.counter.1__AT2 b.counter.1__AT3)))
(let ((.def_542 (and b.counter.0__AT3 .def_541)))
(let ((.def_543 (or .def_350 .def_542)))
(let ((.def_545 (and .def_543 .def_544)))
(let ((.def_547 (and .def_545 .def_546)))
(let ((.def_548 (or .def_355 .def_547)))
(let ((.def_559 (and .def_548 .def_558)))
(let ((.def_561 (and .def_559 .def_560)))
(let ((.def_562 (or .def_369 .def_561)))
(let ((.def_573 (and .def_562 .def_572)))
(let ((.def_347 (* b.speed_y__AT2 b.speed_y__AT2)))
(let ((.def_539 (= .def_347 .def_538)))
(let ((.def_536 (+ b.speed_y__AT2 b.speed_y__AT3)))
(let ((.def_537 (= .def_536 0.0 )))
(let ((.def_540 (and .def_537 .def_539)))
(let ((.def_574 (and .def_540 .def_573)))
(let ((.def_535 (not b.bool_atom__AT2)))
(let ((.def_575 (or .def_535 .def_574)))
(let ((.def_531 (<= 0.0 b.speed_y__AT2)))
(let ((.def_532 (not .def_531)))
(let ((.def_444 (* (- 1.0) b.x__AT2)))
(let ((.def_445 (* b.x__AT2 .def_444)))
(let ((.def_530 (= b.y__AT2 .def_445)))
(let ((.def_533 (and .def_530 .def_532)))
(let ((.def_534 (= b.bool_atom__AT2 .def_533)))
(let ((.def_576 (and .def_534 .def_575)))
(let ((.def_579 (and .def_576 .def_578)))
(let ((.def_580 (and .def_504 .def_579)))
(let ((.def_581 (and .def_507 .def_580)))
(let ((.def_582 (or .def_463 .def_581)))
(let ((.def_583 (or b.EVENT.1__AT2 .def_582)))
(let ((.def_591 (and .def_583 .def_590)))
(let ((.def_612 (and .def_591 .def_611)))
(let ((.def_491 (= b.time__AT2 b.time__AT3)))
(let ((.def_505 (and .def_491 .def_504)))
(let ((.def_508 (and .def_505 .def_507)))
(let ((.def_511 (and .def_508 .def_510)))
(let ((.def_523 (and .def_511 .def_522)))
(let ((.def_526 (and .def_523 .def_525)))
(let ((.def_527 (or .def_439 .def_526)))
(let ((.def_494 (* (- 1.0) b.time__AT3)))
(let ((.def_497 (+ b.delta__AT2 .def_494)))
(let ((.def_498 (+ b.time__AT2 .def_497)))
(let ((.def_499 (= .def_498 0.0 )))
(let ((.def_500 (or .def_464 .def_499)))
(let ((.def_501 (or b.EVENT.1__AT2 .def_500)))
(let ((.def_492 (or .def_463 .def_491)))
(let ((.def_493 (or b.EVENT.1__AT2 .def_492)))
(let ((.def_502 (and .def_493 .def_501)))
(let ((.def_528 (and .def_502 .def_527)))
(let ((.def_488 (= .def_464 b.event_is_timed__AT3)))
(let ((.def_486 (= b.event_is_timed__AT2 .def_463)))
(let ((.def_489 (and .def_486 .def_488)))
(let ((.def_529 (and .def_489 .def_528)))
(let ((.def_613 (and .def_529 .def_612)))
(let ((.def_617 (and .def_613 .def_616)))
(let ((.def_620 (and .def_617 .def_619)))
(let ((.def_621 (and .def_439 .def_620)))
(let ((.def_640 (and .def_621 .def_639)))
(let ((.def_652 (and .def_640 .def_651)))
(let ((.def_473 (* 5.0 b.delta__AT2)))
(let ((.def_474 (* b.delta__AT2 .def_473)))
(let ((.def_475 (* (- 1.0) .def_474)))
(let ((.def_478 (+ .def_471 .def_475)))
(let ((.def_468 (* b.x__AT2 b.x__AT2)))
(let ((.def_479 (+ .def_468 .def_478)))
(let ((.def_480 (+ b.y__AT2 .def_479)))
(let ((.def_481 (<= 0.0 .def_480)))
(let ((.def_469 (+ b.y__AT2 .def_468)))
(let ((.def_470 (<= 0.0 .def_469)))
(let ((.def_482 (and .def_470 .def_481)))
(let ((.def_467 (not .def_466)))
(let ((.def_483 (or .def_467 .def_482)))
(let ((.def_484 (or .def_464 .def_483)))
(let ((.def_166 (not b.counter.0__AT1)))
(let ((.def_456 (or b.counter.1__AT1 .def_166)))
(let ((.def_457 (or b.counter.2__AT1 .def_456)))
(let ((.def_156 (not b.counter.1__AT1)))
(let ((.def_451 (and .def_156 .def_166)))
(let ((.def_161 (not b.counter.2__AT1)))
(let ((.def_455 (or .def_161 .def_451)))
(let ((.def_458 (and .def_455 .def_457)))
(let ((.def_459 (or b.counter.3__AT1 .def_458)))
(let ((.def_452 (or b.counter.2__AT1 .def_451)))
(let ((.def_450 (or .def_156 .def_161)))
(let ((.def_453 (and .def_450 .def_452)))
(let ((.def_175 (not b.counter.3__AT1)))
(let ((.def_454 (or .def_175 .def_453)))
(let ((.def_460 (and .def_454 .def_459)))
(let ((.def_446 (<= .def_445 b.y__AT2)))
(let ((.def_447 (and .def_69 .def_446)))
(let ((.def_442 (or .def_439 .def_441)))
(let ((.def_432 (or .def_350 .def_360)))
(let ((.def_436 (or b.counter.3__AT2 .def_432)))
(let ((.def_433 (or b.counter.2__AT2 .def_432)))
(let ((.def_431 (or .def_355 .def_360)))
(let ((.def_434 (and .def_431 .def_433)))
(let ((.def_435 (or .def_369 .def_434)))
(let ((.def_437 (and .def_435 .def_436)))
(let ((.def_443 (and .def_437 .def_442)))
(let ((.def_448 (and .def_443 .def_447)))
(let ((.def_275 (<= 0.0 b.delta__AT1)))
(let ((.def_251 (not b.EVENT.0__AT1)))
(let ((.def_249 (not b.EVENT.1__AT1)))
(let ((.def_272 (and .def_249 .def_251)))
(let ((.def_273 (not .def_272)))
(let ((.def_427 (or .def_273 .def_275)))
(let ((.def_428 (or b.EVENT.1__AT1 .def_427)))
(let ((.def_334 (= b.bool_atom__AT1 b.bool_atom__AT2)))
(let ((.def_330 (= b.counter.0__AT1 b.counter.0__AT2)))
(let ((.def_327 (= b.counter.1__AT1 b.counter.1__AT2)))
(let ((.def_324 (= b.counter.2__AT1 b.counter.2__AT2)))
(let ((.def_322 (= b.counter.3__AT1 b.counter.3__AT2)))
(let ((.def_325 (and .def_322 .def_324)))
(let ((.def_328 (and .def_325 .def_327)))
(let ((.def_331 (and .def_328 .def_330)))
(let ((.def_423 (and .def_331 .def_334)))
(let ((.def_424 (or .def_273 .def_423)))
(let ((.def_425 (or b.EVENT.1__AT1 .def_424)))
(let ((.def_412 (* .def_207 b.delta__AT1)))
(let ((.def_413 (* (- 1.0) b.speed_y__AT2)))
(let ((.def_416 (+ .def_413 .def_412)))
(let ((.def_417 (+ b.speed_y__AT1 .def_416)))
(let ((.def_418 (= .def_417 0.0 )))
(let ((.def_401 (* b.delta__AT1 b.delta__AT1)))
(let ((.def_402 (* .def_210 .def_401)))
(let ((.def_403 (* (- 1.0) b.y__AT2)))
(let ((.def_407 (+ .def_403 .def_402)))
(let ((.def_280 (* b.speed_y__AT1 b.delta__AT1)))
(let ((.def_408 (+ .def_280 .def_407)))
(let ((.def_409 (+ b.y__AT1 .def_408)))
(let ((.def_410 (= .def_409 0.0 )))
(let ((.def_313 (= b.x__AT1 b.x__AT2)))
(let ((.def_411 (and .def_313 .def_410)))
(let ((.def_419 (and .def_411 .def_418)))
(let ((.def_420 (or .def_273 .def_419)))
(let ((.def_316 (= b.y__AT1 b.y__AT2)))
(let ((.def_396 (and .def_313 .def_316)))
(let ((.def_319 (= b.speed_y__AT1 b.speed_y__AT2)))
(let ((.def_397 (and .def_319 .def_396)))
(let ((.def_393 (= b.delta__AT1 0.0 )))
(let ((.def_394 (and .def_272 .def_393)))
(let ((.def_395 (not .def_394)))
(let ((.def_398 (or .def_395 .def_397)))
(let ((.def_399 (or b.EVENT.1__AT1 .def_398)))
(let ((.def_386 (and .def_319 .def_331)))
(let ((.def_387 (or b.bool_atom__AT1 .def_386)))
(let ((.def_361 (or b.counter.0__AT1 .def_360)))
(let ((.def_359 (or .def_166 b.counter.0__AT2)))
(let ((.def_362 (and .def_359 .def_361)))
(let ((.def_363 (and .def_350 .def_362)))
(let ((.def_364 (or b.counter.1__AT1 .def_363)))
(let ((.def_358 (or .def_156 b.counter.1__AT2)))
(let ((.def_365 (and .def_358 .def_364)))
(let ((.def_377 (and .def_355 .def_365)))
(let ((.def_378 (or b.counter.2__AT1 .def_377)))
(let ((.def_372 (and .def_166 .def_350)))
(let ((.def_373 (or b.counter.1__AT1 .def_372)))
(let ((.def_374 (and .def_358 .def_373)))
(let ((.def_375 (and b.counter.2__AT2 .def_374)))
(let ((.def_376 (or .def_161 .def_375)))
(let ((.def_379 (and .def_376 .def_378)))
(let ((.def_380 (and b.counter.3__AT2 .def_379)))
(let ((.def_381 (or b.counter.3__AT1 .def_380)))
(let ((.def_366 (and b.counter.2__AT2 .def_365)))
(let ((.def_367 (or b.counter.2__AT1 .def_366)))
(let ((.def_353 (or b.counter.1__AT1 b.counter.1__AT2)))
(let ((.def_351 (and b.counter.0__AT2 .def_350)))
(let ((.def_352 (or .def_156 .def_351)))
(let ((.def_354 (and .def_352 .def_353)))
(let ((.def_356 (and .def_354 .def_355)))
(let ((.def_357 (or .def_161 .def_356)))
(let ((.def_368 (and .def_357 .def_367)))
(let ((.def_370 (and .def_368 .def_369)))
(let ((.def_371 (or .def_175 .def_370)))
(let ((.def_382 (and .def_371 .def_381)))
(let ((.def_152 (* b.speed_y__AT1 b.speed_y__AT1)))
(let ((.def_348 (= .def_152 .def_347)))
(let ((.def_345 (+ b.speed_y__AT1 b.speed_y__AT2)))
(let ((.def_346 (= .def_345 0.0 )))
(let ((.def_349 (and .def_346 .def_348)))
(let ((.def_383 (and .def_349 .def_382)))
(let ((.def_344 (not b.bool_atom__AT1)))
(let ((.def_384 (or .def_344 .def_383)))
(let ((.def_340 (<= 0.0 b.speed_y__AT1)))
(let ((.def_341 (not .def_340)))
(let ((.def_254 (* (- 1.0) b.x__AT1)))
(let ((.def_255 (* b.x__AT1 .def_254)))
(let ((.def_339 (= b.y__AT1 .def_255)))
(let ((.def_342 (and .def_339 .def_341)))
(let ((.def_343 (= b.bool_atom__AT1 .def_342)))
(let ((.def_385 (and .def_343 .def_384)))
(let ((.def_388 (and .def_385 .def_387)))
(let ((.def_389 (and .def_313 .def_388)))
(let ((.def_390 (and .def_316 .def_389)))
(let ((.def_391 (or .def_272 .def_390)))
(let ((.def_392 (or b.EVENT.1__AT1 .def_391)))
(let ((.def_400 (and .def_392 .def_399)))
(let ((.def_421 (and .def_400 .def_420)))
(let ((.def_300 (= b.time__AT1 b.time__AT2)))
(let ((.def_314 (and .def_300 .def_313)))
(let ((.def_317 (and .def_314 .def_316)))
(let ((.def_320 (and .def_317 .def_319)))
(let ((.def_332 (and .def_320 .def_331)))
(let ((.def_335 (and .def_332 .def_334)))
(let ((.def_336 (or .def_249 .def_335)))
(let ((.def_303 (* (- 1.0) b.time__AT2)))
(let ((.def_306 (+ b.delta__AT1 .def_303)))
(let ((.def_307 (+ b.time__AT1 .def_306)))
(let ((.def_308 (= .def_307 0.0 )))
(let ((.def_309 (or .def_273 .def_308)))
(let ((.def_310 (or b.EVENT.1__AT1 .def_309)))
(let ((.def_301 (or .def_272 .def_300)))
(let ((.def_302 (or b.EVENT.1__AT1 .def_301)))
(let ((.def_311 (and .def_302 .def_310)))
(let ((.def_337 (and .def_311 .def_336)))
(let ((.def_297 (= .def_273 b.event_is_timed__AT2)))
(let ((.def_295 (= b.event_is_timed__AT1 .def_272)))
(let ((.def_298 (and .def_295 .def_297)))
(let ((.def_338 (and .def_298 .def_337)))
(let ((.def_422 (and .def_338 .def_421)))
(let ((.def_426 (and .def_422 .def_425)))
(let ((.def_429 (and .def_426 .def_428)))
(let ((.def_430 (and .def_249 .def_429)))
(let ((.def_449 (and .def_430 .def_448)))
(let ((.def_461 (and .def_449 .def_460)))
(let ((.def_282 (* 5.0 b.delta__AT1)))
(let ((.def_283 (* b.delta__AT1 .def_282)))
(let ((.def_284 (* (- 1.0) .def_283)))
(let ((.def_287 (+ .def_280 .def_284)))
(let ((.def_277 (* b.x__AT1 b.x__AT1)))
(let ((.def_288 (+ .def_277 .def_287)))
(let ((.def_289 (+ b.y__AT1 .def_288)))
(let ((.def_290 (<= 0.0 .def_289)))
(let ((.def_278 (+ b.y__AT1 .def_277)))
(let ((.def_279 (<= 0.0 .def_278)))
(let ((.def_291 (and .def_279 .def_290)))
(let ((.def_276 (not .def_275)))
(let ((.def_292 (or .def_276 .def_291)))
(let ((.def_293 (or .def_273 .def_292)))
(let ((.def_38 (not b.counter.0__AT0)))
(let ((.def_265 (or b.counter.1__AT0 .def_38)))
(let ((.def_266 (or b.counter.2__AT0 .def_265)))
(let ((.def_41 (not b.counter.2__AT0)))
(let ((.def_36 (not b.counter.1__AT0)))
(let ((.def_39 (and .def_36 .def_38)))
(let ((.def_264 (or .def_39 .def_41)))
(let ((.def_267 (and .def_264 .def_266)))
(let ((.def_268 (or b.counter.3__AT0 .def_267)))
(let ((.def_261 (or .def_39 b.counter.2__AT0)))
(let ((.def_260 (or .def_36 .def_41)))
(let ((.def_262 (and .def_260 .def_261)))
(let ((.def_44 (not b.counter.3__AT0)))
(let ((.def_263 (or .def_44 .def_262)))
(let ((.def_269 (and .def_263 .def_268)))
(let ((.def_256 (<= .def_255 b.y__AT1)))
(let ((.def_257 (and .def_69 .def_256)))
(let ((.def_252 (or .def_249 .def_251)))
(let ((.def_242 (or .def_156 .def_166)))
(let ((.def_246 (or b.counter.3__AT1 .def_242)))
(let ((.def_243 (or b.counter.2__AT1 .def_242)))
(let ((.def_241 (or .def_161 .def_166)))
(let ((.def_244 (and .def_241 .def_243)))
(let ((.def_245 (or .def_175 .def_244)))
(let ((.def_247 (and .def_245 .def_246)))
(let ((.def_253 (and .def_247 .def_252)))
(let ((.def_258 (and .def_253 .def_257)))
(let ((.def_77 (<= 0.0 b.delta__AT0)))
(let ((.def_57 (not b.EVENT.0__AT0)))
(let ((.def_55 (not b.EVENT.1__AT0)))
(let ((.def_74 (and .def_55 .def_57)))
(let ((.def_75 (not .def_74)))
(let ((.def_237 (or .def_75 .def_77)))
(let ((.def_238 (or b.EVENT.1__AT0 .def_237)))
(let ((.def_139 (= b.bool_atom__AT0 b.bool_atom__AT1)))
(let ((.def_134 (= b.counter.0__AT0 b.counter.0__AT1)))
(let ((.def_131 (= b.counter.1__AT0 b.counter.1__AT1)))
(let ((.def_128 (= b.counter.2__AT0 b.counter.2__AT1)))
(let ((.def_126 (= b.counter.3__AT0 b.counter.3__AT1)))
(let ((.def_129 (and .def_126 .def_128)))
(let ((.def_132 (and .def_129 .def_131)))
(let ((.def_135 (and .def_132 .def_134)))
(let ((.def_233 (and .def_135 .def_139)))
(let ((.def_234 (or .def_75 .def_233)))
(let ((.def_235 (or b.EVENT.1__AT0 .def_234)))
(let ((.def_222 (* b.delta__AT0 .def_207)))
(let ((.def_223 (* (- 1.0) b.speed_y__AT1)))
(let ((.def_226 (+ .def_223 .def_222)))
(let ((.def_227 (+ b.speed_y__AT0 .def_226)))
(let ((.def_228 (= .def_227 0.0 )))
(let ((.def_211 (* b.delta__AT0 b.delta__AT0)))
(let ((.def_212 (* .def_210 .def_211)))
(let ((.def_214 (* (- 1.0) b.y__AT1)))
(let ((.def_217 (+ .def_214 .def_212)))
(let ((.def_83 (* b.delta__AT0 b.speed_y__AT0)))
(let ((.def_218 (+ .def_83 .def_217)))
(let ((.def_219 (+ b.y__AT0 .def_218)))
(let ((.def_220 (= .def_219 0.0 )))
(let ((.def_117 (= b.x__AT0 b.x__AT1)))
(let ((.def_221 (and .def_117 .def_220)))
(let ((.def_229 (and .def_221 .def_228)))
(let ((.def_230 (or .def_75 .def_229)))
(let ((.def_120 (= b.y__AT0 b.y__AT1)))
(let ((.def_202 (and .def_117 .def_120)))
(let ((.def_123 (= b.speed_y__AT0 b.speed_y__AT1)))
(let ((.def_203 (and .def_123 .def_202)))
(let ((.def_199 (= b.delta__AT0 0.0 )))
(let ((.def_200 (and .def_74 .def_199)))
(let ((.def_201 (not .def_200)))
(let ((.def_204 (or .def_201 .def_203)))
(let ((.def_205 (or b.EVENT.1__AT0 .def_204)))
(let ((.def_192 (and .def_123 .def_135)))
(let ((.def_193 (or b.bool_atom__AT0 .def_192)))
(let ((.def_167 (or b.counter.0__AT0 .def_166)))
(let ((.def_165 (or .def_38 b.counter.0__AT1)))
(let ((.def_168 (and .def_165 .def_167)))
(let ((.def_169 (and .def_156 .def_168)))
(let ((.def_170 (or b.counter.1__AT0 .def_169)))
(let ((.def_164 (or .def_36 b.counter.1__AT1)))
(let ((.def_171 (and .def_164 .def_170)))
(let ((.def_183 (and .def_161 .def_171)))
(let ((.def_184 (or b.counter.2__AT0 .def_183)))
(let ((.def_178 (and .def_38 .def_156)))
(let ((.def_179 (or b.counter.1__AT0 .def_178)))
(let ((.def_180 (and .def_164 .def_179)))
(let ((.def_181 (and b.counter.2__AT1 .def_180)))
(let ((.def_182 (or .def_41 .def_181)))
(let ((.def_185 (and .def_182 .def_184)))
(let ((.def_186 (and b.counter.3__AT1 .def_185)))
(let ((.def_187 (or b.counter.3__AT0 .def_186)))
(let ((.def_172 (and b.counter.2__AT1 .def_171)))
(let ((.def_173 (or b.counter.2__AT0 .def_172)))
(let ((.def_159 (or b.counter.1__AT0 b.counter.1__AT1)))
(let ((.def_157 (and b.counter.0__AT1 .def_156)))
(let ((.def_158 (or .def_36 .def_157)))
(let ((.def_160 (and .def_158 .def_159)))
(let ((.def_162 (and .def_160 .def_161)))
(let ((.def_163 (or .def_41 .def_162)))
(let ((.def_174 (and .def_163 .def_173)))
(let ((.def_176 (and .def_174 .def_175)))
(let ((.def_177 (or .def_44 .def_176)))
(let ((.def_188 (and .def_177 .def_187)))
(let ((.def_153 (* b.speed_y__AT0 b.speed_y__AT0)))
(let ((.def_154 (= .def_152 .def_153)))
(let ((.def_150 (+ b.speed_y__AT0 b.speed_y__AT1)))
(let ((.def_151 (= .def_150 0.0 )))
(let ((.def_155 (and .def_151 .def_154)))
(let ((.def_189 (and .def_155 .def_188)))
(let ((.def_149 (not b.bool_atom__AT0)))
(let ((.def_190 (or .def_149 .def_189)))
(let ((.def_145 (<= 0.0 b.speed_y__AT0)))
(let ((.def_146 (not .def_145)))
(let ((.def_62 (* (- 1.0) b.x__AT0)))
(let ((.def_63 (* b.x__AT0 .def_62)))
(let ((.def_144 (= b.y__AT0 .def_63)))
(let ((.def_147 (and .def_144 .def_146)))
(let ((.def_148 (= b.bool_atom__AT0 .def_147)))
(let ((.def_191 (and .def_148 .def_190)))
(let ((.def_194 (and .def_191 .def_193)))
(let ((.def_195 (and .def_117 .def_194)))
(let ((.def_196 (and .def_120 .def_195)))
(let ((.def_197 (or .def_74 .def_196)))
(let ((.def_198 (or b.EVENT.1__AT0 .def_197)))
(let ((.def_206 (and .def_198 .def_205)))
(let ((.def_231 (and .def_206 .def_230)))
(let ((.def_104 (= b.time__AT0 b.time__AT1)))
(let ((.def_118 (and .def_104 .def_117)))
(let ((.def_121 (and .def_118 .def_120)))
(let ((.def_124 (and .def_121 .def_123)))
(let ((.def_136 (and .def_124 .def_135)))
(let ((.def_140 (and .def_136 .def_139)))
(let ((.def_141 (or .def_55 .def_140)))
(let ((.def_107 (* (- 1.0) b.time__AT1)))
(let ((.def_110 (+ b.delta__AT0 .def_107)))
(let ((.def_111 (+ b.time__AT0 .def_110)))
(let ((.def_112 (= .def_111 0.0 )))
(let ((.def_113 (or .def_75 .def_112)))
(let ((.def_114 (or b.EVENT.1__AT0 .def_113)))
(let ((.def_105 (or .def_74 .def_104)))
(let ((.def_106 (or b.EVENT.1__AT0 .def_105)))
(let ((.def_115 (and .def_106 .def_114)))
(let ((.def_142 (and .def_115 .def_141)))
(let ((.def_101 (= .def_75 b.event_is_timed__AT1)))
(let ((.def_99 (= b.event_is_timed__AT0 .def_74)))
(let ((.def_102 (and .def_99 .def_101)))
(let ((.def_143 (and .def_102 .def_142)))
(let ((.def_232 (and .def_143 .def_231)))
(let ((.def_236 (and .def_232 .def_235)))
(let ((.def_239 (and .def_236 .def_238)))
(let ((.def_240 (and .def_55 .def_239)))
(let ((.def_259 (and .def_240 .def_258)))
(let ((.def_270 (and .def_259 .def_269)))
(let ((.def_86 (* 5.0 b.delta__AT0)))
(let ((.def_87 (* b.delta__AT0 .def_86)))
(let ((.def_88 (* (- 1.0) .def_87)))
(let ((.def_91 (+ .def_83 .def_88)))
(let ((.def_79 (* b.x__AT0 b.x__AT0)))
(let ((.def_92 (+ .def_79 .def_91)))
(let ((.def_93 (+ b.y__AT0 .def_92)))
(let ((.def_94 (<= 0.0 .def_93)))
(let ((.def_80 (+ b.y__AT0 .def_79)))
(let ((.def_81 (<= 0.0 .def_80)))
(let ((.def_95 (and .def_81 .def_94)))
(let ((.def_78 (not .def_77)))
(let ((.def_96 (or .def_78 .def_95)))
(let ((.def_97 (or .def_75 .def_96)))
(let ((.def_64 (<= .def_63 b.y__AT0)))
(let ((.def_70 (and .def_64 .def_69)))
(let ((.def_58 (or .def_55 .def_57)))
(let ((.def_48 (or .def_36 .def_38)))
(let ((.def_52 (or b.counter.3__AT0 .def_48)))
(let ((.def_49 (or b.counter.2__AT0 .def_48)))
(let ((.def_47 (or .def_38 .def_41)))
(let ((.def_50 (and .def_47 .def_49)))
(let ((.def_51 (or .def_44 .def_50)))
(let ((.def_53 (and .def_51 .def_52)))
(let ((.def_59 (and .def_53 .def_58)))
(let ((.def_71 (and .def_59 .def_70)))
(let ((.def_42 (and .def_39 .def_41)))
(let ((.def_45 (and .def_42 .def_44)))
(let ((.def_33 (= b.y__AT0 10.0 )))
(let ((.def_29 (= b.x__AT0 0.0 )))
(let ((.def_25 (= b.time__AT0 0.0 )))
(let ((.def_27 (and .def_25 b.event_is_timed__AT0)))
(let ((.def_30 (and .def_27 .def_29)))
(let ((.def_34 (and .def_30 .def_33)))
(let ((.def_46 (and .def_34 .def_45)))
(let ((.def_72 (and .def_46 .def_71)))
(let ((.def_17 (or b.counter.1__AT4 .def_9)))
(let ((.def_18 (or b.counter.2__AT4 .def_17)))
(let ((.def_10 (and .def_6 .def_9)))
(let ((.def_16 (or .def_4 .def_10)))
(let ((.def_19 (and .def_16 .def_18)))
(let ((.def_20 (or b.counter.3__AT4 .def_19)))
(let ((.def_11 (or b.counter.2__AT4 .def_10)))
(let ((.def_7 (or .def_4 .def_6)))
(let ((.def_12 (and .def_7 .def_11)))
(let ((.def_15 (or .def_12 .def_14)))
(let ((.def_21 (and .def_15 .def_20)))
(let ((.def_22 (not .def_21)))
(let ((.def_73 (and .def_22 .def_72)))
(let ((.def_98 (and .def_73 .def_97)))
(let ((.def_271 (and .def_98 .def_270)))
(let ((.def_294 (and .def_271 .def_293)))
(let ((.def_462 (and .def_294 .def_461)))
(let ((.def_485 (and .def_462 .def_484)))
(let ((.def_653 (and .def_485 .def_652)))
(let ((.def_676 (and .def_653 .def_675)))
(let ((.def_836 (and .def_676 .def_835)))
(let ((.def_859 (and .def_836 .def_858)))
.def_859)))))))))))))))))))))))))))))))))))))))))))))))))))))))))))))))))))))))))))))))))))))))))))))))))))))))))))))))))))))))))))))))))))))))))))))))))))))))))))))))))))))))))))))))))))))))))))))))))))))))))))))))))))))))))))))))))))))))))))))))))))))))))))))))))))))))))))))))))))))))))))))))))))))))))))))))))))))))))))))))))))))))))))))))))))))))))))))))))))))))))))))))))))))))))))))))))))))))))))))))))))))))))))))))))))))))))))))))))))))))))))))))))))))))))))))))))))))))))))))))))))))))))))))))))))))))))))))))))))))))))))))))))))))))))))))))))))))))))))))))))))))))))))))))))))))))))))))))))))))))))))))))))))))))))))))))))))))))))))))))))))))))))))))))))))))))))))))))))))))))))))))))))))))))))))))))))))))))))))))))))))))))))))))))))))))
(check-sat)
(exit)
